#VRML_SIM R2023b utf8
# license: Creative Commons Attribution 4.0 International License.
# license url: https://creativecommons.org/licenses/by/4.0/legalcode
# documentation url: https://webots.cloud/run?url=https://github.com/cyberbotics/webots/blob/released/projects/objects/trees/protos/Cypress.proto
# keywords: exterior/tree
# A cypress tree with optional boundingObject.
# template language: javascript

PROTO Cypress [
  field SFVec3f    translation           0 0 0
  field SFRotation rotation              0 0 1 0
  field SFString   name                  "cypress tree"
  field SFFloat    scale                 1
  field SFBool     enableBoundingObject  TRUE            # Defines whether the tree should have a bounding object.
]
{
  Solid {
    translation IS translation
    rotation IS rotation
    name IS name
    model "cypress tree"
    recognitionColors [
      0 0.16470588235294117 0
      0.30196078431372547 0.2196078431372549 0.12156862745098039
    ]
    children [
      Transform {
        scale %<= fields.scale.value >% %<= fields.scale.value >% %<= fields.scale.value >%
        children [
          Shape {
            appearance PBRAppearance {
              baseColorMap ImageTexture {
                url [
                  "textures/cypress_trunk.jpg"
                ]
              }
              normalMap ImageTexture {
                url [
                  "textures/cypress_trunk_normal.jpg"
                ]
              }
              roughness 0.85
              metalness 0
            }
            geometry IndexedFaceSet {
              coord Coordinate {
                point [
                  -0.100485 0 0 0.051312 -0.088875 0 0.034892 0.029341 4.452566 0.04956 0.020858 4.452099 0.054597 0.094565 0 0.049545 0.037799 4.451528
                ]
              }
              texCoord TextureCoordinate {
                point [
                  0 0
                  0.3333 0
                  0 4
                  0 4
                  0.3333 0
                  0.3333 4
                  0.3333 0
                  0.6665 0
                  0.3333 4
                  0.3333 4
                  0.6665 0
                  0.6665 4
                  0.6665 0
                  1 0
                  0.6665 4
                  0.6665 4
                  1 0
                  1 4
                ]
              }
              coordIndex [
                0, 1, 2, -1, 2, 1, 3, -1, 1, 4
                3, -1, 3, 4, 5, -1, 4, 0, 5, -1
                5, 0, 2, -1
              ]
              texCoordIndex [
                0, 1, 2, -1, 3, 4, 5, -1, 6, 7
                8, -1, 9, 10, 11, -1, 12, 13, 14, -1
                15, 16, 17, -1
              ]
            }
          }
          Shape {
            appearance PBRAppearance {
              baseColorMap ImageTexture {
                url [
                  "textures/cypress_leaves.png"
                ]
              }
              metalness 0
              roughness 1
            }
            geometry IndexedFaceSet {
              coord Coordinate {
                point [
                  0 0 0.241798 0.09005 0.295886 0.264063 -0.253655 0.002355 1.404111 -0.162412 0.298176 1.420464 -0.20986 -0.222007 0.189721 -0.466426 -0.219696 1.365058 -0.149974 0.139528 0.204501 -0.405629 0.141835 1.375631 0.071683 -0.194668 0.259624 -0.181194 -0.192376 1.417942 0.000102 0 0.2817 -0.233125 -0.08704 0.323715 0.254545 -0.327798 1.361063 0.015663 -0.407539 1.379091 0.233853 -0.021423 0.188711 0.501126 -0.366007 1.322515 -0.008705 -0.31066 0.139505 0.265769 -0.664624 1.30387 0.233452 0.247671 0.314703 0.482986 -0.0738 1.373229 0.000121 0 0.32203 0.337543 -0.103428 0.359831 0.021473 0.38489 1.503583 0.358618 0.275783 1.524208 -0.236573 0.245042 0.222201 -0.214527 0.643862 1.446715 0.205238 0.145605 0.256344 0.227025 0.539205 1.464843 -0.241688 -0.085987 0.363102 -0.220601 0.293463 1.528221 0.00014 0 0.362793 -0.074349 0.275824 0.42322 -0.338739 -0.293667 1.633436 -0.405418 -0.011188 1.664868 0.044451 -0.279145 0.290049 -0.303852 -0.581044 1.595675 -0.272524 0.054494 0.278987 -0.62241 -0.248772 1.590491 0.251225 -0.137214 0.412113 -0.081136 -0.425342 1.658554 0.000186 0.000122 0.443407 0.287616 -0.02184 0.571158 -0.244642 0.406454 1.48456 0.062672 0.351876 1.529266 -0.278606 0.046312 0.303549 -0.545158 0.48828 1.435436 0.036229 0.244971 0.300784 -0.230369 0.687013 1.432848 -0.196235 -0.200874 0.494504 -0.433483 0.193025 1.504013 0.000161 0.000106 0.402844 -0.118996 -0.266503 0.451246 0.384044 -0.030116 1.491613 0.256323 -0.296055 1.515807 0.233105 0.146655 0.293839 0.636253 0.114928 1.437072 0.195738 -0.126952 0.301725 0.597481 -0.15857 1.440986 0.009944 0.254072 0.407778 0.392965 0.223918 1.494113 0.00051 0.000335 0.819925 -0.199838 0.008495 0.876191 0.09378 -0.492018 1.761288 -0.111551 -0.457787 1.767522 0.158298 -0.067063 0.701892 0.262015 -0.614064 1.748133 -0.186932 -0.173263 0.653442 -0.078939 -0.74263 1.74261 0.288026 0.091869 0.86401 0.377404 -0.380127 1.766306 0.00024 0.000158 0.52424 0.018693 -0.216509 0.579001 0.407181 0.219902 1.660146 0.413734 -0.003202 1.68172 0.071083 0.189955 0.428107 0.49888 0.420981 1.622174 0.243874 -0.030824 0.398667 0.678007 0.203629 1.610402 -0.214518 0.157751 0.595859 0.17694 0.36912 1.688589 0.000211 0.000138 0.483783 -0.174439 0.109665 0.532505 -0.051062 -0.414541 1.554285 -0.224413 -0.295002 1.577356 0.081919 -0.172434 0.39205 0.028145 -0.606386 1.511924 -0.133932 -0.137492 0.395208 -0.187666 -0.571141 1.514312 0.207249 0.029351 0.516395 0.156917 -0.378077 1.568314 0.000302 0.000198 0.605749 -0.217774 0.017236 0.676643 0.180709 -0.385631 1.66047 -0.045359 -0.351586 1.685112 0.207741 -0.048297 0.519201 0.397898 -0.454875 1.630342 -0.057674 -0.223647 0.489413 0.135796 -0.637276 1.619724 0.16505 0.188741 0.671416 0.3381 -0.181433 1.683567 0.000269 0.000177 0.564478 0.168752 0.169691 0.629316 -0.40071 0.134572 1.624591 -0.217431 0.299126 1.650209 -0.201551 -0.10608 0.468023 -0.624517 0.035686 1.586417 -0.126981 0.215339 0.448897 -0.554252 0.358548 1.5787 -0.005652 -0.270739 0.613626 -0.395481 -0.140082 1.644182 0.000337 0.000221 0.646053 0.222723 -0.156904 0.710696 0.171941 0.452395 1.684532 0.385073 0.271263 1.693936 -0.098274 0.209667 0.488794 0.096113 0.720948 1.663281 0.205443 0.032384 0.542754 0.392179 0.523814 1.671566 -0.223729 0.034808 0.694754 -0.059337 0.46827 1.690176 0.000373 0.000245 0.686596 -0.020575 0.17684 0.7486 -0.368074 -0.259541 1.723773 -0.374032 -0.072402 1.744088 -0.020844 -0.16721 0.603063 -0.409512 -0.44122 1.696476 -0.220137 0.006512 0.556457 -0.620186 -0.275502 1.681522 0.208322 -0.132291 0.755818 -0.143268 -0.380221 1.746113 0.000417 0.000274 0.731477 -0.081637 -0.171562 0.781864 0.495797 -0.098538 1.75146 0.392624 -0.266161 1.759043 0.124501 0.108183 0.623041 0.665426 0.000284 1.735338 0.127328 -0.242589 0.545618 0.700931 -0.357008 1.724151 0.015246 0.326684 0.785044 0.487985 0.232389 1.759137 0.000464 0.000305 0.778033 0.270373 0.239932 0.80297 -0.393349 0.395068 1.862366 -0.115258 0.62648 1.865178 -0.289869 -0.038228 0.565627 -0.752936 0.426073 1.837269 -0.057828 0.197642 0.561786 -0.522096 0.663148 1.83668 -0.156626 -0.242741 0.851202 -0.526639 0.128124 1.871159 0.001033 0.000678 1.199815 0.230525 -0.164541 1.218714 0.266281 0.398951 2.142167 0.489807 0.224733 2.139716 -0.072097 0.193406 1.005317 0.25267 0.681431 2.160632 0.200016 -0.01587 1.04572 0.512206 0.453191 2.156038 -0.221931 0.093953 1.27193 0.021457 0.459259 2.136059 0.000544 0.000357 0.849422 0.22913 -0.224023 0.886324 0.307142 0.407968 1.999823 0.527686 0.172871 2.006842 -0.022746 0.270466 0.674899 0.321457 0.728192 1.965025 0.309367 0.066624 0.644143 0.660061 0.533001 1.958383 -0.333429 0.164195 0.908769 -0.03948 0.554948 2.012174 0.000607 0.000398 0.903224 0.14271 0.216041 1.049579 -0.499869 0.060648 1.901489 -0.287361 0.267816 1.907547 -0.149775 -0.200124 0.744192 -0.726738 -0.130667 1.894876 -0.068086 0.157244 0.793337 -0.621277 0.223839 1.896647 0.040839 -0.183113 0.981322 -0.422206 -0.127369 1.904997 0.000645 0.000424 0.933001 -0.234461 -0.179822 0.998331 0.359372 -0.303733 1.931087 0.103261 -0.466191 1.937839 0.253908 0.096563 0.796449 0.656653 -0.244869 1.91729 -0.032896 -0.15954 0.85169 0.352129 -0.485966 1.923114 0.05519 0.161823 0.998575 0.392696 -0.124363 1.937481 0.000702 0.000461 0.977664 0.258338 -0.08896 1.055307 0.037385 0.510796 2.03678 0.292519 0.387338 2.044919 -0.22483 0.124754 0.858972 -0.18432 0.68713 2.024362 0.206662 0.131337 0.816666 0.248538 0.712293 2.02001 -0.271108 -0.060189 1.066599 -0.237294 0.411125 2.046021 0.000789 0.000518 1.040523 -0.107334 0.218208 1.136214 -0.441938 -0.359616 2.136051 -0.506718 -0.10675 2.126141 0.080114 -0.211731 0.910546 -0.421534 -0.619685 2.149628 -0.15422 0.002389 0.824783 -0.694947 -0.43728 2.159079 0.177994 -0.195714 1.066342 -0.252894 -0.546239 2.133022 0.000836 0.000549 1.073256 -0.082644 -0.15681 1.156506 0.48243 -0.074368 2.028618 0.355978 -0.224918 2.02615 0.108361 0.099505 0.941698 0.65813 0.013785 2.033052 0.060231 -0.137041 0.955497 0.603255 -0.221692 2.033396 -0.011146 0.181183 1.132868 0.439151 0.111225 2.025801 0.000901 0.000592 1.117064 0.282975 0.121996 1.264357 -0.330266 0.388345 2.219555 0.003922 0.449183 2.19472 -0.237548 -0.001777 0.873885 -0.654313 0.485455 2.25909 0.036768 0.165654 0.958699 -0.34977 0.617757 2.244068 -0.097146 -0.177922 1.227204 -0.389946 0.165242 2.202977 0.001674 0.001099 1.534711 0.210325 -0.194431 1.61513 0.290273 0.40894 2.50155 0.470516 0.173158 2.489144 -0.048257 0.178286 1.301589 0.322277 0.702222 2.536134 0.161424 0.001995 1.349267 0.515051 0.501974 2.528565 -0.206647 0.091976 1.625564 0.050192 0.454814 2.488637 0.000969 0.000636 1.159456 -0.260167 0.066454 1.274937 0.009721 -0.506522 2.205096 -0.252539 -0.376524 2.191685 0.210924 -0.10279 0.983157 0.221395 -0.708073 2.225855 -0.108619 -0.105513 0.986902 -0.09818 -0.70895 2.225891 0.224393 0.032132 1.20573 0.23269 -0.44906 2.199225 0.001164 0.000764 1.276294 -0.112317 -0.203453 1.272646 0.395409 -0.217646 2.23584 0.284112 -0.423087 2.237521 0.158494 0.032669 1.106514 0.628374 -0.228128 2.250443 0.060802 -0.208735 1.05772 0.553103 -0.482098 2.256312 0.112319 0.28225 1.336556 0.478918 0.079333 2.228702 0.00109 0.000716 1.233878 -0.062408 0.230096 1.24296 -0.486312 -0.143183 2.259201 -0.544876 0.087681 2.257929 -0.100512 -0.117213 1.053603 -0.67573 -0.287529 2.263031 -0.206783 0.060916 0.986149 -0.814351 -0.119131 2.263391 0.151227 -0.279736 1.317608 -0.296156 -0.411596 2.259041 0.001417 0.000931 1.411936 -0.003621 -0.215333 1.494562 0.539127 0.093793 2.411371 0.484553 -0.13105 2.401886 0.051478 0.16685 1.258355 0.681345 0.275673 2.429155 0.114607 -0.066139 1.213521 0.771476 0.047359 2.434531 -0.067693 0.220419 1.47299 0.43328 0.306919 2.404114 0.001239 0.000813 1.317986 0.267128 0.016057 1.339006 -0.050504 0.441705 2.273766 0.216607 0.446175 2.271892 -0.13427 0.121677 1.122025 -0.197498 0.663926 2.293319 0.091808 0.129684 1.147032 0.030037 0.659079 2.291009 -0.230236 -0.016685 1.305775 -0.282684 0.430436 2.274786 0.001339 0.00088 1.370877 -0.106996 0.217093 1.504108 -0.35979 -0.334835 2.356786 -0.409644 -0.064386 2.332147 0.055008 -0.195658 1.184523 -0.387995 -0.607302 2.391448 -0.198442 0.044881 1.139185 -0.661563 -0.385421 2.400422 0.234346 -0.151424 1.505195 -0.067569 -0.432223 2.331251 0.002395 0.001573 1.82783 -0.22327 0.094942 1.961106 -0.070116 -0.420721 2.774551 -0.281955 -0.245817 2.730538 0.18366 -0.104376 1.645286 0.092198 -0.638438 2.83503 -0.20363 -0.040753 1.638345 -0.295861 -0.579353 2.837934 0.27889 -0.023116 1.883358 0.212185 -0.411169 2.755645 0.001865 0.001225 1.619319 -0.173214 -0.167822 1.670127 0.349064 -0.294522 2.480842 0.14979 -0.44299 2.473222 0.141207 0.020396 1.414313 0.58689 -0.359115 2.51366 -0.012458 -0.130091 1.455886 0.413445 -0.492779 2.507462 0.123423 0.168756 1.655595 0.452972 -0.111979 2.474502 0.001485 0.000975 1.445033 0.123549 0.161889 1.514652 -0.433474 0.200218 2.376092 -0.276608 0.345172 2.371526 -0.133734 -0.115656 1.327762 -0.62717 0.110402 2.383475 -0.018347 0.195029 1.290258 -0.530157 0.429512 2.385139 -0.020578 -0.220079 1.557521 -0.399758 -0.046415 2.369678 0.001759 0.001155 1.572386 0.011279 0.358199 1.638468 -0.504766 -0.036147 2.649749 -0.4577 0.323739 2.635446 -0.136395 -0.201127 1.304182 -0.79347 -0.249825 2.703874 -0.134999 0.184221 1.360069 -0.760197 0.137935 2.691516 0.049367 -0.304458 1.612741 -0.435 -0.340082 2.642663 0.001574 0.001033 1.487933 -0.193665 -0.006851 1.541111 0.108371 -0.507143 2.476532 -0.093014 -0.486039 2.473892 0.17004 -0.030869 1.380185 0.289315 -0.597897 2.482104 -0.103007 -0.128883 1.315526 0.023797 -0.731421 2.485812 0.236149 0.051158 1.489012 0.342795 -0.456307 2.476246 0.001945 0.001277 1.652292 0.175801 -0.054994 1.753605 -0.011513 0.539871 2.681476 0.163851 0.426425 2.675631 -0.152308 0.071014 1.529819 -0.167585 0.678619 2.688343 0.237297 0.098576 1.504131 0.22166 0.719855 2.688272 -0.259438 -0.075124 1.764771 -0.271245 0.400856 2.676613 0.002045 0.001343 1.693813 -0.142153 0.256695 1.714173 -0.378636 -0.235645 2.63365 -0.513273 0.025651 2.630576 -0.003993 -0.215087 1.494982 -0.478468 -0.510386 2.664687 -0.194988 0.077569 1.481889 -0.675695 -0.221605 2.666868 0.192369 -0.21581 1.772336 -0.151216 -0.429735 2.621257 0.002172 0.001427 1.744258 -0.130724 -0.204428 1.862497 0.409519 -0.150124 2.730318 0.210781 -0.331291 2.689091 0.139991 0.180683 1.59296 0.631784 -0.002532 2.783542 0.038755 -0.14041 1.545359 0.557987 -0.333913 2.802399 0.073673 0.234629 1.78326 0.458606 0.091482 2.715035 0.002278 0.001496 1.784171 0.285927 0.167114 1.841538 -0.291607 0.426721 2.780128 0.012736 0.562283 2.766896 -0.235427 -0.03915 1.553908 -0.611613 0.505603 2.830638 0.042111 0.140776 1.576856 -0.325657 0.673304 2.824872 -0.205451 -0.142771 1.78481 -0.499285 0.282378 2.78059 0.002505 0.001645 1.86662 0.16885 -0.162792 1.884332 0.284445 0.303128 2.815396 0.443489 0.130857 2.80822 -0.034464 0.143694 1.683647 0.321294 0.524386 2.884034 0.227163 -0.096641 1.680467 0.583951 0.285157 2.88437 -0.238181 0.167867 1.962668 0.005261 0.42804 2.780215 0.002614 0.001717 1.905013 0.047872 0.227396 1.970159 -0.430251 0.02695 2.956724 -0.348303 0.25047 2.933339 -0.089199 -0.14313 1.73824 -0.61557 -0.112393 3.01558 -0.0755 0.108864 1.737643 -0.601961 0.139606 3.0152 0.025956 -0.199114 1.973697 -0.368652 -0.176132 2.933095 0.002736 0.001797 1.945966 -0.266052 -0.163462 2.059066 0.30277 -0.331933 2.991069 -0.0092 -0.449297 2.955721 0.208275 0.010486 1.68134 0.609934 -0.435959 3.075793 -0.013827 -0.151309 1.736589 0.366863 -0.574498 3.058958 0.164965 0.192581 2.015516 0.43799 -0.111191 2.967771 0.002875 0.001888 1.991032 0.253306 -0.037062 2.048637 0.025978 0.339733 2.83982 0.274063 0.266678 2.81397 -0.181623 0.07992 1.825434 -0.151831 0.514976 2.912104 0.14279 0.056958 1.831422 0.172306 0.488005 2.908287 -0.21434 0.003648 2.021007 -0.192421 0.324285 2.827685 0.004229 0.002777 2.361881 -0.142513 0.234401 2.46736 -0.251414 -0.222716 3.304256 -0.354556 0.047263 3.251515 0.076072 -0.200302 2.162117 -0.262301 -0.498573 3.404718 -0.138656 0.032905 2.14183 -0.4856 -0.272906 3.41554 0.189576 -0.178358 2.412697 -0.044866 -0.385201 3.278133 0.002985 0.00196 2.026184 -0.064803 0.156092 2.107156 -0.362547 -0.293304 3.03272 -0.394292 -0.110053 3.014846 0.05122 -0.146607 1.923668 -0.359954 -0.478745 3.055372 -0.221624 0.129581 1.852234 -0.664671 -0.228307 3.071345 0.223093 -0.204796 2.10234 -0.108476 -0.472621 3.015735 0.003141 0.002063 2.07345 -0.080171 -0.166967 2.116798 0.350554 -0.126962 2.910537 0.242763 -0.286819 2.895774 0.099062 0.117831 1.951843 0.516174 -0.037313 2.954404 -0.032282 -0.218842 1.956353 0.383196 -0.373373 2.95505 0.047862 0.229229 2.174252 0.336574 0.122201 2.871965 0.00328 0.002154 2.114903 0.246255 0.031829 2.266604 -0.126047 0.353219 3.116126 0.147152 0.302059 3.040789 -0.208118 0.003518 1.919353 -0.376278 0.45844 3.212272 0.082033 0.152416 1.835191 -0.102361 0.650755 3.250033 -0.261405 -0.150705 2.231502 -0.368069 0.139747 3.062508 0.003411 0.00224 2.15205 -0.272007 0.115548 2.189553 -0.138067 -0.420793 3.17622 -0.406691 -0.287253 3.165811 0.084218 -0.15056 1.906647 -0.102773 -0.709131 3.251823 -0.192109 -0.018345 1.980609 -0.365537 -0.536528 3.230133 0.249232 -0.044102 2.225997 0.121634 -0.4258 3.152264 0.003574 0.002347 2.196748 0.088664 -0.232483 2.260681 0.421661 0.205618 3.160686 0.470316 -0.046913 3.142428 0.0562 0.106475 1.966834 0.605655 0.373569 3.227108 0.120069 -0.058816 2.002967 0.648946 0.19828 3.216822 -0.120932 0.182528 2.279792 0.249608 0.3627 3.136472 0.003728 0.002448 2.238171 0.100398 0.174421 2.324517 -0.327007 0.118019 3.102139 -0.182385 0.273248 3.065209 -0.10049 -0.094888 2.076803 -0.520378 0.051815 3.169964 0.003216 0.212953 2.073793 -0.417693 0.360013 3.16958 -0.049004 -0.248486 2.312898 -0.339068 -0.147117 3.072307 0.003895 0.002558 2.280329 -0.190549 -0.104742 2.310116 0.226397 -0.340923 3.187854 0.022496 -0.433432 3.179153 0.099606 -0.026917 2.07988 0.389464 -0.475751 3.26161 0.015019 -0.08416 2.068984 0.308814 -0.539151 3.266744 0.189839 0.131876 2.312145 0.401034 -0.193919 3.173626 0.005628 0.003696 2.647261 0.216558 -0.037035 2.699976 0.026122 0.359055 3.6169 0.235373 0.290434 3.596054 -0.066524 0.109339 2.466807 -0.040363 0.558821 3.684745 0.231045 0.067854 2.512881 0.255724 0.492726 3.665912 -0.241076 -0.04044 2.748139 -0.223714 0.262897 3.580526 0.004057 0.002664 2.321137 0.287434 -0.011647 2.340207 0.014054 0.363269 3.141476 0.297071 0.33684 3.1329 -0.173519 0.087403 2.115815 -0.159804 0.573359 3.222139 0.183644 0.067954 2.143452 0.196841 0.536444 3.209927 -0.196068 -0.054215 2.478621 -0.188904 0.210843 3.080973 0.004405 0.002893 2.402516 -0.003093 -0.196232 2.479549 0.397926 0.052742 3.306046 0.344042 -0.152275 3.27948 0.041281 0.163324 2.266341 0.517037 0.223618 3.353538 0.074186 -0.090468 2.262463 0.552605 -0.029835 3.355604 -0.044855 0.163379 2.473355 0.305583 0.207756 3.280666 0.004578 0.003007 2.441037 0.201212 0.145137 2.529735 -0.248257 0.247406 3.305965 -0.015437 0.354528 3.273517 -0.173538 -0.054158 2.262879 -0.498441 0.259964 3.369082 0.044329 0.163533 2.278871 -0.273532 0.470842 3.361501 -0.082 -0.175558 2.560476 -0.287105 0.022665 3.265606 0.005182 0.003403 2.564363 0.041814 0.235138 2.662336 -0.30445 -0.019554 3.451511 -0.217559 0.215893 3.410808 -0.084763 -0.150026 2.382673 -0.487225 -0.179838 3.525971 -0.08818 0.090441 2.410658 -0.476051 0.061706 3.513697 0.020304 -0.195812 2.563035 -0.290274 -0.218839 3.452791 0.004792 0.003147 2.485693 -0.236088 0.039404 2.501191 -0.035043 -0.316687 3.448071 -0.275002 -0.272656 3.440419 0.047371 -0.095515 2.266534 -0.00586 -0.528507 3.565793 -0.20693 -0.067676 2.258408 -0.260687 -0.50511 3.570882 0.320719 -0.021811 2.518374 0.282918 -0.324462 3.429605 0.004989 0.003277 2.52712 0.087942 -0.169537 2.627859 0.266191 0.207678 3.388509 0.304462 -0.00021 3.341475 -0.035548 0.15491 2.37793 0.291754 0.4112 3.457931 0.109472 -0.054178 2.415625 0.419958 0.188911 3.440009 -0.103937 0.075611 2.624853 0.114078 0.246111 3.343414 0.007967 0.005232 2.987016 0.24473 -0.054242 2.969977 0.080695 0.253375 3.878825 0.319622 0.20103 3.886461 -0.070524 0.142825 2.800491 0.026936 0.472468 3.973653 0.194946 0.055973 2.814264 0.290478 0.379263 3.965558 -0.243387 0.051841 3.032053 -0.176524 0.280655 3.857065 0.005422 0.003561 2.610005 -0.150108 -0.100919 2.670964 0.245889 -0.258109 3.558799 0.067645 -0.337916 3.532692 0.147273 0.058623 2.484834 0.434888 -0.254259 3.61435 -0.072109 -0.188981 2.397475 0.249323 -0.538596 3.65661 0.208227 0.214762 2.660166 0.429055 -0.025576 3.533691 0.006411 0.00421 2.77612 0.230965 0.080412 2.820572 -0.126598 0.316647 3.659557 0.107978 0.36944 3.639711 -0.152331 0.03145 2.596493 -0.324409 0.43513 3.730545 0.05801 0.129403 2.589575 -0.115159 0.535631 3.730618 -0.163837 -0.121789 2.867082 -0.277541 0.145561 3.62669 0.00588 0.003862 2.69028 -0.025298 0.19509 2.795806 -0.297241 -0.148529 3.541829 -0.278092 0.068224 3.505389 -0.002077 -0.161289 2.544204 -0.37473 -0.348942 3.591893 -0.15953 0.14593 2.544633 -0.531563 -0.041409 3.590573 0.157185 -0.196134 2.766871 -0.109869 -0.330232 3.516676 0.006125 0.004023 2.731719 -0.09288 -0.148433 2.810269 0.288684 -0.088933 3.583896 0.15241 -0.22908 3.552225 0.111152 0.140075 2.633362 0.440545 0.031652 3.624051 0.026539 -0.123041 2.622749 0.361838 -0.233414 3.630906 0.043555 0.165484 2.762793 0.31069 0.077622 3.569354 0.006993 0.004592 2.861936 0.102066 -0.226074 2.898871 0.24493 0.1231 3.791539 0.324492 -0.115289 3.770313 0.056969 0.126565 2.646912 0.385781 0.290319 3.917272 0.158594 -0.085568 2.653206 0.484845 0.076911 3.913961 -0.148703 0.193377 2.983588 0.037699 0.286225 3.719947 0.006678 0.004386 2.816966 -0.147322 0.09606 2.929885 -0.036315 -0.274382 3.66389 -0.181745 -0.128079 3.615763 0.130975 -0.096876 2.678521 0.077441 -0.442832 3.723513 -0.152403 -0.032915 2.704622 -0.204081 -0.367044 3.714759 0.184309 0.023336 2.903033 0.147997 -0.212839 3.624386 0.007308 0.004799 2.904714 0.100303 0.226716 2.943231 -0.271139 0.103551 3.807334 -0.158714 0.318599 3.785115 -0.116533 -0.124757 2.739617 -0.475383 0.002418 3.893562 -0.016472 0.162742 2.747652 -0.370423 0.288184 3.886283 -0.009967 -0.194336 3.005841 -0.240142 -0.112649 3.75757 0.011072 0.007272 3.292579 -0.20341 0.00731 3.285893 0.017407 -0.195911 4.125525 -0.196994 -0.199499 4.133668 0.110201 -0.11191 3.144199 0.117751 -0.369865 4.201144 -0.077294 -0.078426 3.180874 -0.070026 -0.323705 4.185979 0.176554 0.014248 3.306642 0.182753 -0.182818 4.114574 0.007606 0.004995 2.943721 -0.146358 -0.039458 3.043845 0.167986 -0.190308 3.782003 -0.014422 -0.200012 3.733642 0.153095 0.02942 2.825643 0.347146 -0.207017 3.839696 -0.033378 -0.152101 2.776485 0.175556 -0.40672 3.86823 0.160555 0.169764 3.005237 0.302593 -0.00313 3.747765 0.008708 0.005719 3.071903 -0.055172 -0.184157 3.078199 0.295665 -0.075706 4.010322 0.229866 -0.265031 4.010385 0.131133 0.078752 2.931007 0.479302 -0.02027 4.068441 0.099821 -0.185697 2.858185 0.480949 -0.294194 4.102787 0.079837 0.29685 3.100199 0.353161 0.219343 3.994292 0.008345 0.00548 3.032575 -0.084098 0.23215 3.070987 -0.197137 -0.09146 3.952098 -0.275095 0.142257 3.925665 -0.040216 -0.130084 2.830922 -0.319796 -0.263082 4.082101 -0.118295 0.116619 2.911499 -0.367912 -0.001799 4.028554 0.130617 -0.13957 3.116593 -0.044364 -0.221668 3.899608 0.009155 0.006013 3.119619 0.233277 0.048972 3.128277 -0.03331 0.239231 4.028686 0.191641 0.27759 4.019931 -0.098315 0.082794 2.933324 -0.155067 0.395278 4.142595 0.188919 0.129481 2.960075 0.134423 0.429447 4.121946 -0.236214 -0.083269 3.189164 -0.273561 0.121553 3.990672 0.009591 0.006299 3.162516 -0.170599 0.137555 3.189835 -0.10891 -0.192817 4.021958 -0.283164 -0.051711 4.009014 0.086035 -0.14159 3.011758 -0.066763 -0.397617 4.103953 -0.144061 0.006781 3.017605 -0.29591 -0.247671 4.103386 0.196487 -0.080929 3.208009 0.088688 -0.262287 3.994799 0.010034 0.00659 3.203841 -0.007528 -0.202621 3.266727 0.24566 0.042609 4.041354 0.202757 -0.170434 4.012993 0.061673 0.191584 3.09828 0.34026 0.2341 4.09049 0.130285 -0.124538 3.061671 0.424745 -0.079621 4.111032 -0.065251 0.211001 3.270289 0.142509 0.242807 4.00747 0.010532 0.006917 3.24835 0.14193 0.129824 3.25211 -0.145783 0.186701 4.062315 -0.012478 0.307458 4.056548 -0.099466 0.040859 3.110024 -0.295702 0.265642 4.122966 -0.020697 0.151247 3.076012 -0.226072 0.386332 4.134485 -0.133485 -0.165356 3.281338 -0.281369 0.004925 4.053312 0.012276 0.008062 3.383962 0.081595 0.133798 3.428996 -0.182104 0.062868 4.205076 -0.096074 0.183906 4.180757 -0.071706 -0.096701 3.316031 -0.290934 -0.034907 4.24027 -0.076046 0.165666 3.237249 -0.322466 0.235105 4.27434 0.049672 -0.198098 3.485275 -0.109183 -0.15328 4.158957 0.011714 0.007693 3.344209 0.11449 -0.2026 3.426533 0.10478 0.074229 4.212488 0.189618 -0.148749 4.144321 0.027632 0.146118 3.138908 0.165446 0.244299 4.382663 0.167195 -0.037734 3.120997 0.30892 0.063212 4.397601 -0.168609 0.200166 3.424827 -0.093124 0.25427 4.145547 0.022241 0.014607 3.884669 0.196743 -0.101391 3.951647 0.063605 0.123861 4.524213 0.230851 -0.011923 4.479675 -0.126119 0.149158 3.793689 -0.075112 0.284713 4.581454 0.189514 0.124321 3.739616 0.245289 0.272882 4.600642 -0.220693 0.035223 3.924865 -0.182854 0.134864 4.510254 0.012963 0.008513 3.433339 -0.223139 -0.010667 3.562262 0.067999 -0.082958 4.284246 -0.184413 -0.074372 4.189655 0.21071 -0.025413 3.253122 0.288847 -0.156215 4.420601 -0.093691 -0.143274 3.284754 -0.018991 -0.268226 4.40508 0.176464 0.150937 3.53068 0.218403 0.081765 4.202166 0.014409 0.009463 3.524567 -0.0812 0.162222 3.535999 -0.079987 -0.0516 4.269515 -0.173048 0.102888 4.26055 -0.002904 -0.132272 3.414029 -0.120844 -0.209306 4.347403 -0.108838 0.001071 3.402821 -0.229045 -0.077502 4.354327 0.127699 -0.120251 3.54512 0.037553 -0.17843 4.256061 0.013675 0.008981 3.478652 0.214814 -0.084589 3.500825 0.08555 0.169754 4.270919 0.283102 0.068006 4.252912 -0.069794 0.152149 3.329523 0.023761 0.362358 4.364671 0.1408 0.064346 3.339104 0.232568 0.27048 4.354224 -0.167729 0.022631 3.553526 -0.10631 0.159561 4.228663 0.015233 0.010004 3.571187 -0.087487 -0.089177 3.647287 0.129134 -0.015408 4.296185 0.00562 -0.109705 4.251108 0.123689 0.091244 3.482774 0.261914 0.060119 4.349521 0.127986 -0.089884 3.41596 0.285773 -0.125604 4.396721 0.052182 0.220602 3.603888 0.155915 0.197578 4.269618 0.019466 0.012784 3.77619 0.158601 0.148522 3.880692 0.019203 0.027856 4.428087 0.162242 0.157323 4.320931 -0.127579 -0.088414 3.646417 -0.132634 -0.065645 4.558115 -0.067057 0.188702 3.592131 -0.07385 0.214264 4.5981 -0.057185 -0.2437 3.801729 -0.056735 -0.229773 4.414966 0.017121 0.011244 3.66969 -0.182365 0.133024 3.708566 -0.019863 -0.099319 4.359289 -0.216226 0.031875 4.340157 0.086246 -0.167146 3.529922 0.037278 -0.313834 4.442085 -0.148883 -0.068682 3.533943 -0.197778 -0.215149 4.444743 0.237056 -0.014484 3.72748 0.205317 -0.109238 4.319683 0.016183 0.010628 3.623213 0.181961 0.102749 3.599465 -0.001595 0.080314 4.275407 0.163092 0.176562 4.287527 -0.104245 0.061559 3.483801 -0.129815 0.160728 4.392137 0.071358 0.141556 3.48202 0.045914 0.240251 4.386245 -0.151385 -0.09255 3.660593 -0.167329 -0.029809 4.252438 0.018227 0.01197 3.722526 0.026755 -0.138773 3.759851 0.104264 0.039194 4.380263 0.103885 -0.114287 4.355107 0.070884 0.11779 3.621438 0.181728 0.152639 4.453195 0.140949 -0.169294 3.623795 0.251856 -0.134426 4.456014 -0.095627 0.206335 3.805741 -0.030644 0.227088 4.315757 0.020722 0.013609 3.828285 -0.145577 -0.003347 3.929291 0.085988 -0.036185 4.482689 -0.097753 -0.038717 4.416521 0.181146 0.013999 3.716888 0.265813 -0.051841 4.557274 0.061005 -0.103418 3.697913 0.150048 -0.172873 4.580299 0.149842 0.137343 3.846529 0.210802 0.091106 4.459599 0.023889 0.015689 3.944088 -0.09225 0.16619 3.959683 -0.008155 -0.016618 4.566642 -0.122892 0.135327 4.555233 0.013892 -0.142389 3.837817 -0.028207 -0.18505 4.653882 -0.13981 0.020552 3.835656 -0.182209 -0.022418 4.657474 0.164258 -0.12138 3.953446 0.133185 -0.152687 4.557308 0.028097 0.018452 4.074488 0.160915 0.01919 4.110809 -0.012118 0.137578 4.636954 0.124416 0.127277 4.622369 -0.087631 0.0639 4.015311 -0.133516 0.199869 4.655464 0.059984 0.170369 3.992574 0.012653 0.310634 4.652553 -0.088979 -0.105504 4.116123 -0.125962 0.004019 4.634289 0.025837 0.016968 4.007055 -0.038864 -0.130599 4.043372 0.148672 0.013699 4.586015 0.07422 -0.13356 4.578762 0.150665 0.080551 3.919557 0.29908 0.076476 4.6128 0.140544 -0.0476 3.916955 0.290649 -0.051729 4.617743 0.059399 0.1724 3.994436 0.18488 0.169048 4.585215 0.037331 0.024516 4.304299 0.078825 0.164324 4.313394 -0.023506 0.051648 4.784033 0.020878 0.190159 4.77006 -0.07808 -0.017435 4.22511 -0.155418 0.017096 4.836532 -0.063859 0.145067 4.210426 -0.143 0.180408 4.836246 0.019479 -0.157255 4.31928 -0.039636 -0.130896 4.785266 0.033732 0.022153 4.222671 0.123991 -0.179343 4.244089 0.124881 0.077547 4.734774 0.209692 -0.127242 4.726155 0.156873 0.138338 4.079343 0.285603 0.216453 4.79864 0.206178 0.016984 4.096023 0.330633 0.092514 4.79175 -0.056845 0.21527 4.205185 0.038727 0.273338 4.741666 0.030687 0.020153 4.146358 -0.120868 0.128985 4.178449 0.032015 -0.008507 4.728528 -0.119433 0.103323 4.708518 0.083993 -0.132053 4.047188 0.084954 -0.171094 4.809805 -0.129253 -0.077511 4.016285 -0.128428 -0.120405 4.845895 0.227904 -0.092798 4.126718 0.229177 -0.123013 4.735884 0.041476 0.027238 4.389447 -0.09218 -0.05225 4.403512 0.116493 -0.034995 4.897772 -0.01831 -0.113502 4.904463 0.114292 -0.075207 4.296802 0.209541 -0.154763 4.934893 0.075889 -0.102529 4.298229 0.171411 -0.182319 4.938069 0.174044 0.12073 4.384038 0.248229 0.059211 4.887037
                ]
              }
              texCoord TextureCoordinate {
                point [